(set-logic QF_UF)
(declare-fun A1 () Bool)
(declare-fun A2 () Bool)
(declare-fun A3 () Bool)
(declare-fun A4 () Bool)
(declare-fun A5 () Bool)
(declare-fun A6 () Bool)
(declare-fun A7 () Bool)
(declare-fun A8 () Bool)
(declare-fun A9 () Bool)
(declare-fun A10 () Bool)
(declare-fun A11 () Bool)
(declare-fun A12 () Bool)
(declare-fun A13 () Bool)
(declare-fun A14 () Bool)
(declare-fun A15 () Bool)
(declare-fun A16 () Bool)
(declare-fun A17 () Bool)
(declare-fun A18 () Bool)
(declare-fun A19 () Bool)
(declare-fun A20 () Bool)
(declare-fun A21 () Bool)
(declare-fun A22 () Bool)
(declare-fun A23 () Bool)
(declare-fun A24 () Bool)
(assert (let ((.def_0 (not A15))) (let ((.def_1 (and A14 .def_0))) (let ((.def_2 (not .def_1))) (let ((.def_3 (not A2))) (let ((.def_4 (not A5))) (let ((.def_5 (or .def_4 .def_3))) (let ((.def_6 (or .def_5 .def_2))) (let ((.def_7 (not A9))) (let ((.def_8 (not A20))) (let ((.def_9 (or .def_8 .def_7))) (let ((.def_10 (not .def_9))) (let ((.def_11 (not A24))) (let ((.def_12 (and A16 .def_11))) (let ((.def_13 (and .def_12 .def_10))) (let ((.def_14 (and .def_13 .def_6))) (let ((.def_15 (and .def_11 A24))) (let ((.def_16 (and A11 .def_0))) (let ((.def_17 (not .def_16))) (let ((.def_18 (or .def_17 .def_15))) (let ((.def_19 (not .def_18))) (let ((.def_20 (or .def_11 A17))) (let ((.def_21 (not .def_20))) (let ((.def_22 (not A3))) (let ((.def_23 (and .def_22 A9))) (let ((.def_24 (or .def_23 .def_21))) (let ((.def_25 (not .def_24))) (let ((.def_26 (and .def_25 .def_19))) (let ((.def_27 (and .def_26 .def_14))) (let ((.def_28 (not .def_27))) (let ((.def_29 (not A1))) (let ((.def_30 (and .def_29 A11))) (let ((.def_31 (not .def_30))) (let ((.def_32 (and A23 A19))) (let ((.def_33 (or .def_32 .def_31))) (let ((.def_34 (not .def_33))) (let ((.def_35 (and A4 A4))) (let ((.def_36 (not A8))) (let ((.def_37 (or .def_36 A19))) (let ((.def_38 (not .def_37))) (let ((.def_39 (or .def_38 .def_35))) (let ((.def_40 (and .def_39 .def_34))) (let ((.def_41 (not A4))) (let ((.def_42 (or .def_41 .def_4))) (let ((.def_43 (not .def_42))) (let ((.def_44 (and A19 A8))) (let ((.def_45 (not .def_44))) (let ((.def_46 (and .def_45 .def_43))) (let ((.def_47 (not .def_46))) (let ((.def_48 (not A10))) (let ((.def_49 (or .def_36 .def_48))) (let ((.def_50 (or .def_29 .def_4))) (let ((.def_51 (or .def_50 .def_49))) (let ((.def_52 (not .def_51))) (let ((.def_53 (or .def_52 .def_47))) (let ((.def_54 (not .def_53))) (let ((.def_55 (or .def_54 .def_40))) (let ((.def_56 (not .def_55))) (let ((.def_57 (or .def_56 .def_28))) (let ((.def_58 (or A9 .def_41))) (let ((.def_59 (and .def_3 .def_3))) (let ((.def_60 (or .def_59 .def_58))) (let ((.def_61 (not .def_60))) (let ((.def_62 (and A9 A16))) (let ((.def_63 (not A7))) (let ((.def_64 (or A24 .def_63))) (let ((.def_65 (or .def_64 .def_62))) (let ((.def_66 (or .def_65 .def_61))) (let ((.def_67 (not .def_66))) (let ((.def_68 (= .def_36 .def_22))) (let ((.def_69 (not .def_68))) (let ((.def_70 (not A12))) (let ((.def_71 (or .def_70 .def_41))) (let ((.def_72 (or .def_71 .def_69))) (let ((.def_73 (not .def_72))) (let ((.def_74 (not A11))) (let ((.def_75 (= .def_74 A6))) (let ((.def_76 (not A22))) (let ((.def_77 (and A22 .def_76))) (let ((.def_78 (and .def_77 .def_75))) (let ((.def_79 (not .def_78))) (let ((.def_80 (and .def_79 .def_73))) (let ((.def_81 (or .def_80 .def_67))) (let ((.def_82 (not .def_81))) (let ((.def_83 (not A14))) (let ((.def_84 (and .def_83 .def_11))) (let ((.def_85 (not A21))) (let ((.def_86 (or .def_85 .def_7))) (let ((.def_87 (= .def_86 .def_84))) (let ((.def_88 (not .def_87))) (let ((.def_89 (= .def_3 A22))) (let ((.def_90 (not A18))) (let ((.def_91 (= .def_4 .def_90))) (let ((.def_92 (and .def_91 .def_89))) (let ((.def_93 (not .def_92))) (let ((.def_94 (and .def_93 .def_88))) (let ((.def_95 (not .def_94))) (let ((.def_96 (not A16))) (let ((.def_97 (and .def_29 .def_96))) (let ((.def_98 (not .def_97))) (let ((.def_99 (not A13))) (let ((.def_100 (or .def_99 A16))) (let ((.def_101 (or .def_100 .def_98))) (let ((.def_102 (and A12 .def_7))) (let ((.def_103 (= A11 .def_83))) (let ((.def_104 (and .def_103 .def_102))) (let ((.def_105 (and .def_104 .def_101))) (let ((.def_106 (and .def_105 .def_95))) (let ((.def_107 (not .def_106))) (let ((.def_108 (and .def_107 .def_82))) (let ((.def_109 (or .def_108 .def_57))) (let ((.def_110 (not .def_109))) .def_110))))))))))))))))))))))))))))))))))))))))))))))))))))))))))))))))))))))))))))))))))))))))))))))))))))))))))))))))
(check-sat)
